VER
4

OBJSENSE
MIN

VAR
82 1
F 82

CON
247 3
HVECQRE 163
HVECPSD 81
L= 3

OBJACOORD
1
0 1.0

ACOORD
220
0 0 1.0
1 1 1.0
2 2 1.0
3 3 1.0
4 4 1.0
5 5 1.0
6 6 1.0
7 7 1.0
8 8 1.0
9 9 1.0
10 10 1.0
11 11 1.0
12 12 1.0
13 13 1.0
14 14 1.0
15 15 1.0
16 16 1.0
17 17 1.0
18 18 1.0
19 19 1.0
20 20 1.0
21 21 1.0
22 22 1.0
23 23 1.0
24 24 1.0
25 25 1.0
26 26 1.0
27 27 1.0
28 28 1.0
29 29 1.0
30 30 1.0
31 31 1.0
32 32 1.0
33 33 1.0
34 34 1.0
35 35 1.0
36 36 1.0
37 37 1.0
38 38 1.0
39 39 1.0
40 40 1.0
41 41 1.0
42 42 1.0
43 43 1.0
44 44 1.0
45 45 1.0
46 46 1.0
47 47 1.0
48 48 1.0
49 49 1.0
50 50 1.0
51 51 1.0
52 52 1.0
53 53 1.0
54 54 1.0
55 55 1.0
56 56 1.0
57 57 1.0
58 58 1.0
59 59 1.0
60 60 1.0
61 61 1.0
62 62 1.0
63 63 1.0
64 64 1.0
65 65 1.0
66 66 1.0
67 67 1.0
68 68 1.0
69 69 1.0
70 70 1.0
71 71 1.0
72 72 1.0
73 73 1.0
74 74 1.0
75 75 1.0
76 76 1.0
77 77 1.0
78 78 1.0
79 79 1.0
80 80 1.0
81 81 1.0
82 1 1.0
83 2 1.0
84 3 1.0
85 4 1.0
86 5 1.0
87 6 1.0
88 7 1.0
89 8 1.0
90 9 1.0
97 16 1.0
104 23 1.0
105 24 1.0
106 25 1.0
113 32 1.0
114 33 1.0
115 34 1.0
116 35 1.0
117 36 1.0
130 49 1.0
143 62 1.0
144 63 1.0
145 64 1.0
158 77 1.0
159 78 1.0
160 79 1.0
161 80 1.0
162 81 1.0
163 1 1.0
164 2 1.0
165 3 1.0
166 4 1.0
167 5 1.0
168 6 1.0
169 7 1.0
170 8 1.0
171 9 1.0
172 10 1.0
173 11 1.0
174 12 1.0
175 13 1.0
176 14 1.0
177 15 1.0
178 16 1.0
179 17 1.0
180 18 1.0
181 19 1.0
182 20 1.0
183 21 1.0
184 22 1.0
185 23 1.0
186 24 1.0
187 25 1.0
188 26 1.0
189 27 1.0
190 28 1.0
191 29 1.0
192 30 1.0
193 31 1.0
194 32 1.0
195 33 1.0
196 34 1.0
197 35 1.0
198 36 1.0
199 37 1.0
200 38 1.0
201 39 1.0
202 40 1.0
203 41 1.0
204 42 1.0
205 43 1.0
206 44 1.0
207 45 1.0
208 46 1.0
209 47 1.0
210 48 1.0
211 49 1.0
212 50 1.0
213 51 1.0
214 52 1.0
215 53 1.0
216 54 1.0
217 55 1.0
218 56 1.0
219 57 1.0
220 58 1.0
221 59 1.0
222 60 1.0
223 61 1.0
224 62 1.0
225 63 1.0
226 64 1.0
227 65 1.0
228 66 1.0
229 67 1.0
230 68 1.0
231 69 1.0
232 70 1.0
233 71 1.0
234 72 1.0
235 73 1.0
236 74 1.0
237 75 1.0
238 76 1.0
239 77 1.0
240 78 1.0
241 79 1.0
242 80 1.0
243 81 1.0
244 1 1.0
244 25 1.0
244 81 1.0
245 1 0.33333333333333354
245 4 0.3333333333333335
245 9 0.3333333333333335
245 14 0.4714045207910319
245 16 0.3333333333333335
245 17 0.4714045207910319
245 25 0.3333333333333335
245 28 0.4714045207910319
245 36 0.3333333333333335
245 39 0.4714045207910319
245 47 0.4714045207910319
245 49 0.3333333333333335
245 54 0.4714045207910319
245 56 0.4714045207910319
245 64 0.3333333333333335
245 65 0.4714045207910319
245 73 0.4714045207910319
245 81 0.33333333333333354
246 1 1.0
246 4 1.0
246 9 1.0
246 16 1.0
246 25 1.0
246 36 1.0
246 49 1.0
246 64 1.0
246 81 1.0

BCOORD
3
244 0.9666666666666667
245 0.9666666666666667
246 1.0
